p cnf 196 713
-2 0
1 2 3 0
-1 -2 -3 0
2 3 4 0
-2 -3 -4 0
4 0
3 4 5 0
-3 -4 -5 0
-5 0
4 5 6 0
-4 -5 -6 0
5 6 7 0
-5 -6 -7 0
7 0
6 7 8 0
-6 -7 -8 0
7 8 9 0
-7 -8 -9 0
8 9 10 0
-8 -9 -10 0
-10 0
9 10 11 0
-9 -10 -11 0
10 11 12 0
-10 -11 -12 0
11 12 13 0
-11 -12 -13 0
12 13 14 0
-12 -13 -14 0
15 0
1 15 29 0
-1 -15 -29 0
15 16 17 0
-15 -16 -17 0
2 16 30 0
-2 -16 -30 0
16 17 18 0
-16 -17 -18 0
3 17 31 0
-3 -17 -31 0
18 0
17 18 19 0
-17 -18 -19 0
4 18 32 0
-4 -18 -32 0
18 19 20 0
-18 -19 -20 0
5 19 33 0
-5 -19 -33 0
19 20 21 0
-19 -20 -21 0
6 20 34 0
-6 -20 -34 0
20 21 22 0
-20 -21 -22 0
7 21 35 0
-7 -21 -35 0
21 22 23 0
-21 -22 -23 0
8 22 36 0
-8 -22 -36 0
22 23 24 0
-22 -23 -24 0
9 23 37 0
-9 -23 -37 0
-24 0
23 24 25 0
-23 -24 -25 0
10 24 38 0
-10 -24 -38 0
24 25 26 0
-24 -25 -26 0
11 25 39 0
-11 -25 -39 0
25 26 27 0
-25 -26 -27 0
12 26 40 0
-12 -26 -40 0
26 27 28 0
-26 -27 -28 0
13 27 41 0
-13 -27 -41 0
28 0
14 28 42 0
-14 -28 -42 0
15 29 43 0
-15 -29 -43 0
30 0
29 30 31 0
-29 -30 -31 0
16 30 44 0
-16 -30 -44 0
30 31 32 0
-30 -31 -32 0
17 31 45 0
-17 -31 -45 0
31 32 33 0
-31 -32 -33 0
18 32 46 0
-18 -32 -46 0
-33 0
32 33 34 0
-32 -33 -34 0
19 33 47 0
-19 -33 -47 0
33 34 35 0
-33 -34 -35 0
20 34 48 0
-20 -34 -48 0
34 35 36 0
-34 -35 -36 0
21 35 49 0
-21 -35 -49 0
35 36 37 0
-35 -36 -37 0
22 36 50 0
-22 -36 -50 0
36 37 38 0
-36 -37 -38 0
23 37 51 0
-23 -37 -51 0
37 38 39 0
-37 -38 -39 0
24 38 52 0
-24 -38 -52 0
38 39 40 0
-38 -39 -40 0
25 39 53 0
-25 -39 -53 0
39 40 41 0
-39 -40 -41 0
26 40 54 0
-26 -40 -54 0
40 41 42 0
-40 -41 -42 0
27 41 55 0
-27 -41 -55 0
28 42 56 0
-28 -42 -56 0
29 43 57 0
-29 -43 -57 0
43 44 45 0
-43 -44 -45 0
30 44 58 0
-30 -44 -58 0
44 45 46 0
-44 -45 -46 0
31 45 59 0
-31 -45 -59 0
46 0
45 46 47 0
-45 -46 -47 0
32 46 60 0
-32 -46 -60 0
47 0
46 47 48 0
-46 -47 -48 0
33 47 61 0
-33 -47 -61 0
47 48 49 0
-47 -48 -49 0
34 48 62 0
-34 -48 -62 0
48 49 50 0
-48 -49 -50 0
35 49 63 0
-35 -49 -63 0
49 50 51 0
-49 -50 -51 0
36 50 64 0
-36 -50 -64 0
51 0
50 51 52 0
-50 -51 -52 0
37 51 65 0
-37 -51 -65 0
51 52 53 0
-51 -52 -53 0
38 52 66 0
-38 -52 -66 0
52 53 54 0
-52 -53 -54 0
39 53 67 0
-39 -53 -67 0
53 54 55 0
-53 -54 -55 0
40 54 68 0
-40 -54 -68 0
54 55 56 0
-54 -55 -56 0
41 55 69 0
-41 -55 -69 0
42 56 70 0
-42 -56 -70 0
-57 0
43 57 71 0
-43 -57 -71 0
57 58 59 0
-57 -58 -59 0
44 58 72 0
-44 -58 -72 0
58 59 60 0
-58 -59 -60 0
45 59 73 0
-45 -59 -73 0
59 60 61 0
-59 -60 -61 0
46 60 74 0
-46 -60 -74 0
60 61 62 0
-60 -61 -62 0
47 61 75 0
-47 -61 -75 0
61 62 63 0
-61 -62 -63 0
48 62 76 0
-48 -62 -76 0
63 0
62 63 64 0
-62 -63 -64 0
49 63 77 0
-49 -63 -77 0
63 64 65 0
-63 -64 -65 0
50 64 78 0
-50 -64 -78 0
64 65 66 0
-64 -65 -66 0
51 65 79 0
-51 -65 -79 0
-66 0
65 66 67 0
-65 -66 -67 0
52 66 80 0
-52 -66 -80 0
66 67 68 0
-66 -67 -68 0
53 67 81 0
-53 -67 -81 0
67 68 69 0
-67 -68 -69 0
54 68 82 0
-54 -68 -82 0
68 69 70 0
-68 -69 -70 0
55 69 83 0
-55 -69 -83 0
70 0
56 70 84 0
-56 -70 -84 0
57 71 85 0
-57 -71 -85 0
72 0
71 72 73 0
-71 -72 -73 0
58 72 86 0
-58 -72 -86 0
72 73 74 0
-72 -73 -74 0
59 73 87 0
-59 -73 -87 0
-74 0
73 74 75 0
-73 -74 -75 0
60 74 88 0
-60 -74 -88 0
74 75 76 0
-74 -75 -76 0
61 75 89 0
-61 -75 -89 0
75 76 77 0
-75 -76 -77 0
62 76 90 0
-62 -76 -90 0
76 77 78 0
-76 -77 -78 0
63 77 91 0
-63 -77 -91 0
77 78 79 0
-77 -78 -79 0
64 78 92 0
-64 -78 -92 0
78 79 80 0
-78 -79 -80 0
65 79 93 0
-65 -79 -93 0
79 80 81 0
-79 -80 -81 0
66 80 94 0
-66 -80 -94 0
80 81 82 0
-80 -81 -82 0
67 81 95 0
-67 -81 -95 0
81 82 83 0
-81 -82 -83 0
68 82 96 0
-68 -82 -96 0
82 83 84 0
-82 -83 -84 0
69 83 97 0
-69 -83 -97 0
84 0
70 84 98 0
-70 -84 -98 0
-85 0
71 85 99 0
-71 -85 -99 0
85 86 87 0
-85 -86 -87 0
72 86 100 0
-72 -86 -100 0
86 87 88 0
-86 -87 -88 0
73 87 101 0
-73 -87 -101 0
87 88 89 0
-87 -88 -89 0
74 88 102 0
-74 -88 -102 0
88 89 90 0
-88 -89 -90 0
75 89 103 0
-75 -89 -103 0
-90 0
89 90 91 0
-89 -90 -91 0
76 90 104 0
-76 -90 -104 0
90 91 92 0
-90 -91 -92 0
77 91 105 0
-77 -91 -105 0
91 92 93 0
-91 -92 -93 0
78 92 106 0
-78 -92 -106 0
92 93 94 0
-92 -93 -94 0
79 93 107 0
-79 -93 -107 0
93 94 95 0
-93 -94 -95 0
80 94 108 0
-80 -94 -108 0
94 95 96 0
-94 -95 -96 0
81 95 109 0
-81 -95 -109 0
-96 0
95 96 97 0
-95 -96 -97 0
82 96 110 0
-82 -96 -110 0
96 97 98 0
-96 -97 -98 0
83 97 111 0
-83 -97 -111 0
84 98 112 0
-84 -98 -112 0
85 99 113 0
-85 -99 -113 0
99 100 101 0
-99 -100 -101 0
86 100 114 0
-86 -100 -114 0
100 101 102 0
-100 -101 -102 0
87 101 115 0
-87 -101 -115 0
101 102 103 0
-101 -102 -103 0
88 102 116 0
-88 -102 -116 0
102 103 104 0
-102 -103 -104 0
89 103 117 0
-89 -103 -117 0
103 104 105 0
-103 -104 -105 0
90 104 118 0
-90 -104 -118 0
104 105 106 0
-104 -105 -106 0
91 105 119 0
-91 -105 -119 0
105 106 107 0
-105 -106 -107 0
92 106 120 0
-92 -106 -120 0
-107 0
106 107 108 0
-106 -107 -108 0
93 107 121 0
-93 -107 -121 0
-108 0
107 108 109 0
-107 -108 -109 0
94 108 122 0
-94 -108 -122 0
108 109 110 0
-108 -109 -110 0
95 109 123 0
-95 -109 -123 0
109 110 111 0
-109 -110 -111 0
96 110 124 0
-96 -110 -124 0
110 111 112 0
-110 -111 -112 0
97 111 125 0
-97 -111 -125 0
98 112 126 0
-98 -112 -126 0
99 113 127 0
-99 -113 -127 0
113 114 115 0
-113 -114 -115 0
100 114 128 0
-100 -114 -128 0
114 115 116 0
-114 -115 -116 0
101 115 129 0
-101 -115 -129 0
115 116 117 0
-115 -116 -117 0
102 116 130 0
-102 -116 -130 0
116 117 118 0
-116 -117 -118 0
103 117 131 0
-103 -117 -131 0
118 0
117 118 119 0
-117 -118 -119 0
104 118 132 0
-104 -118 -132 0
118 119 120 0
-118 -119 -120 0
105 119 133 0
-105 -119 -133 0
119 120 121 0
-119 -120 -121 0
106 120 134 0
-106 -120 -134 0
120 121 122 0
-120 -121 -122 0
107 121 135 0
-107 -121 -135 0
121 122 123 0
-121 -122 -123 0
108 122 136 0
-108 -122 -136 0
123 0
122 123 124 0
-122 -123 -124 0
109 123 137 0
-109 -123 -137 0
123 124 125 0
-123 -124 -125 0
110 124 138 0
-110 -124 -138 0
124 125 126 0
-124 -125 -126 0
111 125 139 0
-111 -125 -139 0
112 126 140 0
-112 -126 -140 0
113 127 141 0
-113 -127 -141 0
-128 0
127 128 129 0
-127 -128 -129 0
114 128 142 0
-114 -128 -142 0
128 129 130 0
-128 -129 -130 0
115 129 143 0
-115 -129 -143 0
129 130 131 0
-129 -130 -131 0
116 130 144 0
-116 -130 -144 0
130 131 132 0
-130 -131 -132 0
117 131 145 0
-117 -131 -145 0
132 0
131 132 133 0
-131 -132 -133 0
118 132 146 0
-118 -132 -146 0
132 133 134 0
-132 -133 -134 0
119 133 147 0
-119 -133 -147 0
133 134 135 0
-133 -134 -135 0
120 134 148 0
-120 -134 -148 0
134 135 136 0
-134 -135 -136 0
121 135 149 0
-121 -135 -149 0
135 136 137 0
-135 -136 -137 0
122 136 150 0
-122 -136 -150 0
136 137 138 0
-136 -137 -138 0
123 137 151 0
-123 -137 -151 0
137 138 139 0
-137 -138 -139 0
124 138 152 0
-124 -138 -152 0
138 139 140 0
-138 -139 -140 0
125 139 153 0
-125 -139 -153 0
126 140 154 0
-126 -140 -154 0
127 141 155 0
-127 -141 -155 0
141 142 143 0
-141 -142 -143 0
128 142 156 0
-128 -142 -156 0
-143 0
142 143 144 0
-142 -143 -144 0
129 143 157 0
-129 -143 -157 0
143 144 145 0
-143 -144 -145 0
130 144 158 0
-130 -144 -158 0
144 145 146 0
-144 -145 -146 0
131 145 159 0
-131 -145 -159 0
145 146 147 0
-145 -146 -147 0
132 146 160 0
-132 -146 -160 0
146 147 148 0
-146 -147 -148 0
133 147 161 0
-133 -147 -161 0
147 148 149 0
-147 -148 -149 0
134 148 162 0
-134 -148 -162 0
149 0
148 149 150 0
-148 -149 -150 0
135 149 163 0
-135 -149 -163 0
149 150 151 0
-149 -150 -151 0
136 150 164 0
-136 -150 -164 0
151 0
150 151 152 0
-150 -151 -152 0
137 151 165 0
-137 -151 -165 0
151 152 153 0
-151 -152 -153 0
138 152 166 0
-138 -152 -166 0
152 153 154 0
-152 -153 -154 0
139 153 167 0
-139 -153 -167 0
140 154 168 0
-140 -154 -168 0
141 155 169 0
-141 -155 -169 0
155 156 157 0
-155 -156 -157 0
142 156 170 0
-142 -156 -170 0
156 157 158 0
-156 -157 -158 0
143 157 171 0
-143 -157 -171 0
157 158 159 0
-157 -158 -159 0
144 158 172 0
-144 -158 -172 0
158 159 160 0
-158 -159 -160 0
145 159 173 0
-145 -159 -173 0
-160 0
159 160 161 0
-159 -160 -161 0
146 160 174 0
-146 -160 -174 0
160 161 162 0
-160 -161 -162 0
147 161 175 0
-147 -161 -175 0
161 162 163 0
-161 -162 -163 0
148 162 176 0
-148 -162 -176 0
162 163 164 0
-162 -163 -164 0
149 163 177 0
-149 -163 -177 0
-164 0
163 164 165 0
-163 -164 -165 0
150 164 178 0
-150 -164 -178 0
164 165 166 0
-164 -165 -166 0
151 165 179 0
-151 -165 -179 0
165 166 167 0
-165 -166 -167 0
152 166 180 0
-152 -166 -180 0
167 0
166 167 168 0
-166 -167 -168 0
153 167 181 0
-153 -167 -181 0
154 168 182 0
-154 -168 -182 0
155 169 183 0
-155 -169 -183 0
169 170 171 0
-169 -170 -171 0
156 170 184 0
-156 -170 -184 0
170 171 172 0
-170 -171 -172 0
157 171 185 0
-157 -171 -185 0
171 172 173 0
-171 -172 -173 0
158 172 186 0
-158 -172 -186 0
172 173 174 0
-172 -173 -174 0
159 173 187 0
-159 -173 -187 0
173 174 175 0
-173 -174 -175 0
160 174 188 0
-160 -174 -188 0
-175 0
174 175 176 0
-174 -175 -176 0
161 175 189 0
-161 -175 -189 0
175 176 177 0
-175 -176 -177 0
162 176 190 0
-162 -176 -190 0
176 177 178 0
-176 -177 -178 0
163 177 191 0
-163 -177 -191 0
177 178 179 0
-177 -178 -179 0
164 178 192 0
-164 -178 -192 0
178 179 180 0
-178 -179 -180 0
165 179 193 0
-165 -179 -193 0
179 180 181 0
-179 -180 -181 0
166 180 194 0
-166 -180 -194 0
180 181 182 0
-180 -181 -182 0
167 181 195 0
-167 -181 -195 0
168 182 196 0
-168 -182 -196 0
-184 0
183 184 185 0
-183 -184 -185 0
-185 0
184 185 186 0
-184 -185 -186 0
185 186 187 0
-185 -186 -187 0
187 0
186 187 188 0
-186 -187 -188 0
187 188 189 0
-187 -188 -189 0
188 189 190 0
-188 -189 -190 0
189 190 191 0
-189 -190 -191 0
190 191 192 0
-190 -191 -192 0
191 192 193 0
-191 -192 -193 0
192 193 194 0
-192 -193 -194 0
193 194 195 0
-193 -194 -195 0
194 195 196 0
-194 -195 -196 0
-196 0
